NAME: bier127
COMMENT: Tabu Search - tabusSize: 0.3 - neighborSize: 3
DIMENSION: 127
DISTANCE: 120923.0
EXECUTION_TIME: 1.046
TOUR_SECTION: 
1 16 14 12 31 27 80 79 77 18 21 17 22 4 20 108 15 106 6 24 23 19 72 8 9 11 114 105 7 120 10 115 13 50 5 121 56 124 52 64 58 100 3 90 116 60 61 91 62 59 67 73 74 68 71 70 69 75 76 78 117 84 81 126 82 83 101 102 63 119 96 109 88 87 86 85 110 104 125 89 92 99 65 113 66 55 47 49 53 48 118 46 94 112 111 107 127 93 95 123 97 98 32 29 28 122 33 25 26 38 39 42 34 40 43 30 41 36 37 35 44 103 45 54 57 51 2 
EOF